=====UNKNOWN=====
% time elapsed: 1800.02 s
%%%mzn-stat: initTime=0.033546053
%%%mzn-stat: nodes=7448785
%%%mzn-stat: restarts=11463
%%%mzn-stat: peakDepth=1062
%%%mzn-stat: solveTime=1799.694676475
%%%mzn-stat: variables=2354
%%%mzn-stat: propagators=13146
%%%mzn-stat: failures=3538904
%%%mzn-stat: propagations=2421080327
%%%mzn-stat: nogoods=3538904
%%%mzn-stat: AverageConflictSize=12.58848050130775
%%%mzn-stat: NumUnitNogoodsLearned=123
%%%mzn-stat: AverageLearnedNogoodLength=34.364398977762605
%%%mzn-stat: AverageBacktrackAmount=0
%%%mzn-stat: AverageLbd=11.905126276383875
%%%mzn-stat-end
